(set-logic QF_S)
(declare-fun var0 () String)
(assert (RegexIn var0 (RegexConcat (RegexPlus (RegexUnion (Str2Reg "00") (Str2Reg "1"))) (RegexConcat (RegexPlus (RegexStar (Str2Reg "222"))) (RegexConcat (RegexPlus (RegexPlus (Str2Reg "33"))) (RegexConcat (RegexStar (RegexStar (Str2Reg "44"))) (RegexConcat (RegexPlus (RegexStar (Str2Reg "55"))) (RegexConcat (RegexUnion (RegexPlus (Str2Reg "666")) (RegexPlus (Str2Reg "777"))) (RegexConcat (RegexStar (RegexPlus (Str2Reg "888"))) (RegexConcat (RegexStar (RegexPlus (Str2Reg "999"))) (RegexConcat (RegexPlus (RegexStar (Str2Reg "a"))) (RegexConcat (RegexUnion (RegexStar (Str2Reg "bbb")) (RegexStar (Str2Reg "cc"))) (RegexConcat (RegexPlus (RegexStar (Str2Reg "d"))) (RegexConcat (RegexStar (RegexPlus (Str2Reg "e"))) (RegexConcat (RegexStar (RegexPlus (Str2Reg "fff"))) (RegexConcat (RegexPlus (RegexStar (Str2Reg "ggg"))) (RegexConcat (RegexPlus (RegexPlus (Str2Reg "hhh"))) (RegexConcat (RegexStar (RegexStar (Str2Reg "iii"))) (RegexConcat (RegexUnion (RegexUnion (Str2Reg "jjj") (Str2Reg "kkk")) (RegexUnion (Str2Reg "ll") (Str2Reg "mm"))) (RegexConcat (RegexStar (RegexStar (Str2Reg "n"))) (RegexConcat (RegexPlus (RegexPlus (Str2Reg "o"))) (RegexConcat (RegexUnion (RegexPlus (Str2Reg "p")) (RegexPlus (Str2Reg "qqq"))) (RegexConcat (RegexStar (RegexUnion (Str2Reg "rrr") (Str2Reg "s"))) (RegexConcat (RegexUnion (RegexStar (Str2Reg "t")) (RegexStar (Str2Reg "uu"))) (RegexConcat (RegexPlus (RegexStar (Str2Reg "vvv"))) (RegexConcat (RegexStar (RegexPlus (Str2Reg "www"))) (RegexConcat (RegexUnion (RegexUnion (Str2Reg "xx") (Str2Reg "yy")) (RegexUnion (Str2Reg "zzz") (Str2Reg "A"))) (RegexConcat (RegexStar (RegexUnion (Str2Reg "B") (Str2Reg "CCC"))) (RegexConcat (RegexPlus (RegexUnion (Str2Reg "D") (Str2Reg "EE"))) (RegexConcat (RegexPlus (RegexUnion (Str2Reg "F") (Str2Reg "GGG"))) (RegexConcat (RegexUnion (RegexPlus (Str2Reg "H")) (RegexPlus (Str2Reg "II"))) (RegexConcat (RegexPlus (RegexPlus (Str2Reg "J"))) (RegexConcat (RegexUnion (RegexUnion (Str2Reg "KKK") (Str2Reg "LL")) (RegexUnion (Str2Reg "MMM") (Str2Reg "NNN"))) (RegexConcat (RegexPlus (RegexStar (Str2Reg "OOO"))) (RegexConcat (RegexStar (RegexUnion (Str2Reg "PP") (Str2Reg "QQQ"))) (RegexConcat (RegexUnion (RegexStar (Str2Reg "R")) (RegexStar (Str2Reg "SS"))) (RegexConcat (RegexStar (RegexPlus (Str2Reg "TT"))) (RegexConcat (RegexStar (RegexStar (Str2Reg "U"))) (RegexConcat (RegexUnion (RegexStar (Str2Reg "VVV")) (RegexStar (Str2Reg "WW"))) (RegexConcat (RegexStar (RegexUnion (Str2Reg "XXX") (Str2Reg "YY"))) (RegexConcat (RegexPlus (RegexUnion (Str2Reg "ZZ") (Str2Reg "!!"))) (RegexConcat (RegexPlus (RegexStar (Str2Reg "\"\""))) (RegexConcat (RegexPlus (RegexStar (Str2Reg "###"))) (RegexConcat (RegexUnion (RegexPlus (Str2Reg "$$$")) (RegexPlus (Str2Reg "%%%"))) (RegexConcat (RegexPlus (RegexPlus (Str2Reg "&"))) (RegexConcat (RegexStar (RegexPlus (Str2Reg "''"))) (RegexConcat (RegexUnion (RegexPlus (Str2Reg "(")) (RegexPlus (Str2Reg ")"))) (RegexConcat (RegexPlus (RegexPlus (Str2Reg "***"))) (RegexConcat (RegexUnion (RegexStar (Str2Reg "+")) (RegexStar (Str2Reg ",,,"))) (RegexConcat (RegexPlus (RegexUnion (Str2Reg "-") (Str2Reg ".."))) (RegexConcat (RegexUnion (RegexUnion (Str2Reg "/") (Str2Reg "::")) (RegexUnion (Str2Reg ";;;") (Str2Reg "<"))) (RegexConcat (RegexStar (RegexUnion (Str2Reg "=") (Str2Reg ">>"))) (RegexConcat (RegexStar (RegexPlus (Str2Reg "?"))) (RegexConcat (RegexPlus (RegexStar (Str2Reg "@@@"))) (RegexConcat (RegexPlus (RegexUnion (Str2Reg "[") (Str2Reg "\\\\\\"))) (RegexConcat (RegexStar (RegexPlus (Str2Reg "]]]"))) (RegexConcat (RegexStar (RegexUnion (Str2Reg "^") (Str2Reg "_"))) (RegexConcat (RegexUnion (RegexUnion (Str2Reg "`") (Str2Reg "{{{")) (RegexUnion (Str2Reg "||") (Str2Reg "}}}"))) (RegexConcat (RegexUnion (RegexPlus (Str2Reg "~~")) (RegexPlus (Str2Reg "0"))) (RegexConcat (RegexStar (RegexStar (Str2Reg "1"))) (RegexConcat (RegexPlus (RegexUnion (Str2Reg "222") (Str2Reg "33"))) (RegexConcat (RegexStar (RegexUnion (Str2Reg "4") (Str2Reg "555"))) (RegexConcat (RegexUnion (RegexUnion (Str2Reg "666") (Str2Reg "7")) (RegexUnion (Str2Reg "8") (Str2Reg "999"))) (RegexConcat (RegexPlus (RegexStar (Str2Reg "aaa"))) (RegexConcat (RegexPlus (RegexUnion (Str2Reg "bb") (Str2Reg "c"))) (RegexConcat (RegexPlus (RegexPlus (Str2Reg "dd"))) (RegexConcat (RegexUnion (RegexStar (Str2Reg "eee")) (RegexStar (Str2Reg "f"))) (RegexConcat (RegexUnion (RegexStar (Str2Reg "gg")) (RegexStar (Str2Reg "hhh"))) (RegexConcat (RegexUnion (RegexPlus (Str2Reg "iii")) (RegexPlus (Str2Reg "jj"))) (RegexConcat (RegexUnion (RegexPlus (Str2Reg "kkk")) (RegexPlus (Str2Reg "l"))) (RegexConcat (RegexPlus (RegexUnion (Str2Reg "mmm") (Str2Reg "n"))) (RegexConcat (RegexUnion (RegexPlus (Str2Reg "ooo")) (RegexPlus (Str2Reg "ppp"))) (RegexConcat (RegexPlus (RegexUnion (Str2Reg "q") (Str2Reg "r"))) (RegexConcat (RegexUnion (RegexUnion (Str2Reg "s") (Str2Reg "ttt")) (RegexUnion (Str2Reg "u") (Str2Reg "vv"))) (RegexConcat (RegexPlus (RegexPlus (Str2Reg "ww"))) (RegexConcat (RegexPlus (RegexPlus (Str2Reg "xx"))) (RegexConcat (RegexUnion (RegexStar (Str2Reg "yyy")) (RegexStar (Str2Reg "z"))) (RegexConcat (RegexStar (RegexPlus (Str2Reg "AA"))) (RegexConcat (RegexPlus (RegexPlus (Str2Reg "BBB"))) (RegexConcat (RegexUnion (RegexStar (Str2Reg "C")) (RegexStar (Str2Reg "DDD"))) (RegexConcat (RegexPlus (RegexPlus (Str2Reg "EEE"))) (RegexConcat (RegexPlus (RegexStar (Str2Reg "FFF"))) (RegexConcat (RegexUnion (RegexStar (Str2Reg "GGG")) (RegexStar (Str2Reg "HHH"))) (RegexConcat (RegexPlus (RegexStar (Str2Reg "III"))) (RegexConcat (RegexUnion (RegexStar (Str2Reg "J")) (RegexStar (Str2Reg "K"))) (RegexConcat (RegexStar (RegexUnion (Str2Reg "LLL") (Str2Reg "MMM"))) (RegexConcat (RegexStar (RegexPlus (Str2Reg "NN"))) (RegexConcat (RegexUnion (RegexUnion (Str2Reg "O") (Str2Reg "P")) (RegexUnion (Str2Reg "QQQ") (Str2Reg "RR"))) (RegexConcat (RegexPlus (RegexPlus (Str2Reg "S"))) (RegexConcat (RegexStar (RegexUnion (Str2Reg "T") (Str2Reg "U"))) (RegexConcat (RegexUnion (RegexStar (Str2Reg "VV")) (RegexStar (Str2Reg "WWW"))) (RegexConcat (RegexUnion (RegexStar (Str2Reg "XXX")) (RegexStar (Str2Reg "Y"))) (RegexConcat (RegexStar (RegexUnion (Str2Reg "Z") (Str2Reg "!!!"))) (RegexConcat (RegexUnion (RegexPlus (Str2Reg "\"\"\"")) (RegexPlus (Str2Reg "##"))) (RegexConcat (RegexPlus (RegexStar (Str2Reg "$"))) (RegexConcat (RegexStar (RegexUnion (Str2Reg "%%") (Str2Reg "&"))) (RegexConcat (RegexPlus (RegexPlus (Str2Reg "''"))) (RegexConcat (RegexUnion (RegexUnion (Str2Reg "(") (Str2Reg ")))")) (RegexUnion (Str2Reg "*") (Str2Reg "+"))) (RegexConcat (RegexPlus (RegexUnion (Str2Reg ",,,") (Str2Reg "-"))) (RegexConcat (RegexPlus (RegexPlus (Str2Reg "..."))) (RegexConcat (RegexStar (RegexUnion (Str2Reg "/") (Str2Reg ":::"))) (RegexConcat (RegexStar (RegexStar (Str2Reg ";;;"))) (RegexConcat (RegexStar (RegexStar (Str2Reg "<"))) (RegexConcat (RegexStar (RegexUnion (Str2Reg "==") (Str2Reg ">"))) (RegexConcat (RegexUnion (RegexPlus (Str2Reg "??")) (RegexPlus (Str2Reg "@"))) (RegexConcat (RegexStar (RegexStar (Str2Reg "[[["))) (RegexConcat (RegexUnion (RegexPlus (Str2Reg "\\\\\\")) (RegexPlus (Str2Reg "]]"))) (RegexConcat (RegexStar (RegexStar (Str2Reg "^"))) (RegexConcat (RegexUnion (RegexStar (Str2Reg "_")) (RegexStar (Str2Reg "```"))) (RegexConcat (RegexUnion (RegexPlus (Str2Reg "{{{")) (RegexPlus (Str2Reg "|"))) (RegexConcat (RegexStar (RegexUnion (Str2Reg "}") (Str2Reg "~~~"))) (RegexConcat (RegexStar (RegexPlus (Str2Reg "0"))) (RegexConcat (RegexStar (RegexStar (Str2Reg "11"))) (RegexConcat (RegexPlus (RegexUnion (Str2Reg "22") (Str2Reg "333"))) (RegexConcat (RegexUnion (RegexUnion (Str2Reg "44") (Str2Reg "555")) (RegexUnion (Str2Reg "66") (Str2Reg "77"))) (RegexConcat (RegexStar (RegexPlus (Str2Reg "888"))) (RegexConcat (RegexPlus (RegexStar (Str2Reg "999"))) (RegexConcat (RegexStar (RegexStar (Str2Reg "aa"))) (RegexConcat (RegexPlus (RegexStar (Str2Reg "b"))) (RegexConcat (RegexStar (RegexPlus (Str2Reg "ccc"))) (RegexConcat (RegexUnion (RegexUnion (Str2Reg "d") (Str2Reg "ee")) (RegexUnion (Str2Reg "fff") (Str2Reg "gg"))) (RegexConcat (RegexUnion (RegexPlus (Str2Reg "hhh")) (RegexPlus (Str2Reg "iii"))) (RegexConcat (RegexStar (RegexUnion (Str2Reg "j") (Str2Reg "kkk"))) (RegexConcat (RegexUnion (RegexUnion (Str2Reg "l") (Str2Reg "mm")) (RegexUnion (Str2Reg "n") (Str2Reg "oo"))) (RegexConcat (RegexPlus (RegexPlus (Str2Reg "pp"))) (RegexConcat (RegexPlus (RegexPlus (Str2Reg "qqq"))) (RegexConcat (RegexStar (RegexUnion (Str2Reg "rrr") (Str2Reg "sss"))) (RegexConcat (RegexStar (RegexStar (Str2Reg "tt"))) (RegexConcat (RegexPlus (RegexStar (Str2Reg "uu"))) (RegexConcat (RegexUnion (RegexStar (Str2Reg "vv")) (RegexStar (Str2Reg "ww"))) (RegexConcat (RegexPlus (RegexUnion (Str2Reg "xx") (Str2Reg "yyy"))) (RegexConcat (RegexUnion (RegexUnion (Str2Reg "z") (Str2Reg "AA")) (RegexUnion (Str2Reg "BB") (Str2Reg "CCC"))) (RegexConcat (RegexStar (RegexUnion (Str2Reg "DD") (Str2Reg "EEE"))) (RegexConcat (RegexStar (RegexUnion (Str2Reg "FFF") (Str2Reg "GG"))) (RegexConcat (RegexUnion (RegexPlus (Str2Reg "HHH")) (RegexPlus (Str2Reg "I"))) (RegexConcat (RegexUnion (RegexPlus (Str2Reg "J")) (RegexPlus (Str2Reg "KKK"))) (RegexConcat (RegexUnion (RegexStar (Str2Reg "LLL")) (RegexStar (Str2Reg "MM"))) (RegexConcat (RegexStar (RegexUnion (Str2Reg "N") (Str2Reg "O"))) (RegexConcat (RegexUnion (RegexStar (Str2Reg "P")) (RegexStar (Str2Reg "QQ"))) (RegexConcat (RegexUnion (RegexStar (Str2Reg "RR")) (RegexStar (Str2Reg "S"))) (RegexConcat (RegexUnion (RegexUnion (Str2Reg "T") (Str2Reg "UUU")) (RegexUnion (Str2Reg "V") (Str2Reg "W"))) (RegexConcat (RegexPlus (RegexPlus (Str2Reg "X"))) (RegexConcat (RegexUnion (RegexPlus (Str2Reg "YY")) (RegexPlus (Str2Reg "ZZZ"))) (RegexConcat (RegexStar (RegexUnion (Str2Reg "!!") (Str2Reg "\""))) (RegexConcat (RegexPlus (RegexPlus (Str2Reg "###"))) (RegexConcat (RegexPlus (RegexPlus (Str2Reg "$"))) (RegexConcat (RegexStar (RegexPlus (Str2Reg "%"))) (RegexConcat (RegexUnion (RegexPlus (Str2Reg "&&&")) (RegexPlus (Str2Reg "'"))) (RegexConcat (RegexPlus (RegexStar (Str2Reg "("))) (RegexConcat (RegexStar (RegexPlus (Str2Reg "))"))) (RegexConcat (RegexPlus (RegexUnion (Str2Reg "**") (Str2Reg "+"))) (RegexConcat (RegexUnion (RegexPlus (Str2Reg ",,,")) (RegexPlus (Str2Reg "---"))) (RegexConcat (RegexPlus (RegexUnion (Str2Reg ".") (Str2Reg "//"))) (RegexConcat (RegexPlus (RegexUnion (Str2Reg ":") (Str2Reg ";;;"))) (RegexConcat (RegexUnion (RegexPlus (Str2Reg "<<<")) (RegexPlus (Str2Reg "="))) (RegexConcat (RegexStar (RegexUnion (Str2Reg ">>") (Str2Reg "??"))) (RegexConcat (RegexPlus (RegexStar (Str2Reg "@"))) (RegexConcat (RegexUnion (RegexStar (Str2Reg "[")) (RegexStar (Str2Reg "\\\\\\"))) (RegexConcat (RegexUnion (RegexStar (Str2Reg "]]")) (RegexStar (Str2Reg "^^"))) (RegexConcat (RegexUnion (RegexPlus (Str2Reg "___")) (RegexPlus (Str2Reg "``"))) (RegexConcat (RegexUnion (RegexPlus (Str2Reg "{")) (RegexPlus (Str2Reg "|||"))) (RegexConcat (RegexStar (RegexStar (Str2Reg "}"))) (RegexConcat (RegexStar (RegexPlus (Str2Reg "~~"))) (RegexConcat (RegexPlus (RegexPlus (Str2Reg "0"))) (RegexConcat (RegexPlus (RegexPlus (Str2Reg "11"))) (RegexConcat (RegexStar (RegexPlus (Str2Reg "2"))) (RegexConcat (RegexUnion (RegexPlus (Str2Reg "33")) (RegexPlus (Str2Reg "4"))) (RegexConcat (RegexPlus (RegexUnion (Str2Reg "555") (Str2Reg "6"))) (RegexConcat (RegexPlus (RegexStar (Str2Reg "7"))) (RegexConcat (RegexPlus (RegexPlus (Str2Reg "888"))) (RegexConcat (RegexStar (RegexPlus (Str2Reg "99"))) (RegexConcat (RegexUnion (RegexUnion (Str2Reg "a") (Str2Reg "bb")) (RegexUnion (Str2Reg "ccc") (Str2Reg "d"))) (RegexConcat (RegexStar (RegexUnion (Str2Reg "eee") (Str2Reg "ff"))) (RegexConcat (RegexStar (RegexUnion (Str2Reg "g") (Str2Reg "h"))) (RegexConcat (RegexUnion (RegexStar (Str2Reg "i")) (RegexStar (Str2Reg "j"))) (RegexConcat (RegexPlus (RegexPlus (Str2Reg "kkk"))) (RegexConcat (RegexUnion (RegexPlus (Str2Reg "l")) (RegexPlus (Str2Reg "m"))) (RegexConcat (RegexUnion (RegexUnion (Str2Reg "n") (Str2Reg "ooo")) (RegexUnion (Str2Reg "pp") (Str2Reg "qqq"))) (RegexConcat (RegexStar (RegexStar (Str2Reg "rr"))) (RegexConcat (RegexStar (RegexPlus (Str2Reg "ss"))) (RegexConcat (RegexStar (RegexUnion (Str2Reg "tt") (Str2Reg "uuu"))) (RegexConcat (RegexPlus (RegexPlus (Str2Reg "vv"))) (RegexConcat (RegexStar (RegexUnion (Str2Reg "www") (Str2Reg "xxx"))) (RegexConcat (RegexStar (RegexPlus (Str2Reg "y"))) (RegexConcat (RegexPlus (RegexUnion (Str2Reg "zz") (Str2Reg "A"))) (RegexConcat (RegexUnion (RegexStar (Str2Reg "B")) (RegexStar (Str2Reg "C"))) (RegexConcat (RegexUnion (RegexPlus (Str2Reg "DDD")) (RegexPlus (Str2Reg "EEE"))) (RegexConcat (RegexUnion (RegexUnion (Str2Reg "FFF") (Str2Reg "GG")) (RegexUnion (Str2Reg "H") (Str2Reg "II"))) (RegexConcat (RegexStar (RegexStar (Str2Reg "JJ"))) (RegexConcat (RegexUnion (RegexPlus (Str2Reg "KKK")) (RegexPlus (Str2Reg "L"))) (RegexConcat (RegexStar (RegexUnion (Str2Reg "MM") (Str2Reg "NNN"))) (RegexPlus (RegexUnion (Str2Reg "OOO") (Str2Reg "PP"))))))))))))))))))))))))))))))))))))))))))))))))))))))))))))))))))))))))))))))))))))))))))))))))))))))))))))))))))))))))))))))))))))))))))))))))))))))))))))))))))))))))))))))))))))))))))))))))))
(check-sat)